c turning on binary mode checking
c parsing input formula with 202048 variables and 780985 clauses
c finished parsing, read 2095210 bytes from proof file
c detected empty clause; start verification via backward checking
c 2745 of 780985 clauses in core                            
c 791 of 85054 lemmas in core using 17841 resolution steps
c 0 RAT lemmas in core; 53 redundant literals in core lemmas
s VERIFIED
c verification time: 0.949 seconds
